c description: Pigeonhole principle formula for 4 pigeons and 6 holes
c generator: CNFgen (0.9.0)
c copyright: (C) 2012-2020 Massimo Lauria <massimo.lauria@uniroma1.it>
c url: https://massimolauria.net/cnfgen
c command line: cnfgen php 4 6
c
p cnf 24 40
1 2 3 4 5 6 0
7 8 9 10 11 12 0
13 14 15 16 17 18 0
19 20 21 22 23 24 0
-1 -7 0
-1 -13 0
-1 -19 0
-7 -13 0
-7 -19 0
-13 -19 0
-2 -8 0
-2 -14 0
-2 -20 0
-8 -14 0
-8 -20 0
-14 -20 0
-3 -9 0
-3 -15 0
-3 -21 0
-9 -15 0
-9 -21 0
-15 -21 0
-4 -10 0
-4 -16 0
-4 -22 0
-10 -16 0
-10 -22 0
-16 -22 0
-5 -11 0
-5 -17 0
-5 -23 0
-11 -17 0
-11 -23 0
-17 -23 0
-6 -12 0
-6 -18 0
-6 -24 0
-12 -18 0
-12 -24 0
-18 -24 0
